certificates/rado_a9_c290_N33.cnf
c Rad2 upper bound instance: x1 + 9*x2 - x3 = 290, interval [1,33]
p cnf 33 192
1 8 33 0
-1 -8 -33 0
2 9 33 0
-2 -9 -33 0
1 3 32 0
-1 -3 -32 0
3 10 33 0
-3 -10 -33 0
2 4 32 0
-2 -4 -32 0
4 11 33 0
-4 -11 -33 0
3 5 32 0
-3 -5 -32 0
5 12 33 0
-5 -12 -33 0
4 6 32 0
-4 -6 -32 0
6 13 33 0
-6 -13 -33 0
5 7 32 0
-5 -7 -32 0
7 14 33 0
-7 -14 -33 0
6 8 32 0
-6 -8 -32 0
8 15 33 0
-8 -15 -33 0
7 9 32 0
-7 -9 -32 0
9 16 33 0
-9 -16 -33 0
8 10 32 0
-8 -10 -32 0
10 17 33 0
-10 -17 -33 0
9 11 32 0
-9 -11 -32 0
11 18 33 0
-11 -18 -33 0
1 12 31 0
-1 -12 -31 0
10 12 32 0
-10 -12 -32 0
12 19 33 0
-12 -19 -33 0
2 13 31 0
-2 -13 -31 0
11 13 32 0
-11 -13 -32 0
13 20 33 0
-13 -20 -33 0
3 14 31 0
-3 -14 -31 0
12 14 32 0
-12 -14 -32 0
14 21 33 0
-14 -21 -33 0
4 15 31 0
-4 -15 -31 0
13 15 32 0
-13 -15 -32 0
15 22 33 0
-15 -22 -33 0
5 16 31 0
-5 -16 -31 0
14 16 32 0
-14 -16 -32 0
16 23 33 0
-16 -23 -33 0
6 17 31 0
-6 -17 -31 0
15 17 32 0
-15 -17 -32 0
17 24 33 0
-17 -24 -33 0
7 18 31 0
-7 -18 -31 0
16 18 32 0
-16 -18 -32 0
18 25 33 0
-18 -25 -33 0
8 19 31 0
-8 -19 -31 0
17 19 32 0
-17 -19 -32 0
19 26 33 0
-19 -26 -33 0
9 20 31 0
-9 -20 -31 0
18 20 32 0
-18 -20 -32 0
20 27 33 0
-20 -27 -33 0
1 21 30 0
-1 -21 -30 0
10 21 31 0
-10 -21 -31 0
19 21 32 0
-19 -21 -32 0
21 28 33 0
-21 -28 -33 0
2 22 30 0
-2 -22 -30 0
11 22 31 0
-11 -22 -31 0
20 22 32 0
-20 -22 -32 0
22 29 33 0
-22 -29 -33 0
3 23 30 0
-3 -23 -30 0
12 23 31 0
-12 -23 -31 0
21 23 32 0
-21 -23 -32 0
23 30 33 0
-23 -30 -33 0
4 24 30 0
-4 -24 -30 0
13 24 31 0
-13 -24 -31 0
22 24 32 0
-22 -24 -32 0
24 31 33 0
-24 -31 -33 0
5 25 30 0
-5 -25 -30 0
14 25 31 0
-14 -25 -31 0
23 25 32 0
-23 -25 -32 0
25 32 33 0
-25 -32 -33 0
6 26 30 0
-6 -26 -30 0
15 26 31 0
-15 -26 -31 0
24 26 32 0
-24 -26 -32 0
26 33 0
-26 -33 0
7 27 30 0
-7 -27 -30 0
16 27 31 0
-16 -27 -31 0
25 27 32 0
-25 -27 -32 0
8 28 30 0
-8 -28 -30 0
17 28 31 0
-17 -28 -31 0
26 28 32 0
-26 -28 -32 0
9 29 30 0
-9 -29 -30 0
18 29 31 0
-18 -29 -31 0
27 29 32 0
-27 -29 -32 0
1 29 30 0
-1 -29 -30 0
10 30 0
-10 -30 0
19 30 31 0
-19 -30 -31 0
28 30 32 0
-28 -30 -32 0
2 29 31 0
-2 -29 -31 0
11 30 31 0
-11 -30 -31 0
20 31 0
-20 -31 0
29 31 32 0
-29 -31 -32 0
3 29 32 0
-3 -29 -32 0
12 30 32 0
-12 -30 -32 0
21 31 32 0
-21 -31 -32 0
30 32 0
-30 -32 0
4 29 33 0
-4 -29 -33 0
13 30 33 0
-13 -30 -33 0
22 31 33 0
-22 -31 -33 0
31 32 33 0
-31 -32 -33 0
