certificates/rado_a9_c290_N33.drat
-32 -33 0
-33 0
26 0
32 0
-30 0
-24 0
-28 0
10 0
23 0
13 0
17 0
4 0
31 0
21 0
8 0
0
